c File: data_files/evolved_graphs/g3722.col
c
c Auto generated graph
c
p edge 100 1641
e 1 3
e 1 10
e 1 17
e 1 25
e 1 37
e 1 52
e 1 53
e 1 54
e 1 71
e 1 74
e 1 78
e 1 80
e 1 84
e 1 87
e 1 89
e 2 6
e 2 7
e 2 8
e 2 9
e 2 10
e 2 11
e 2 13
e 2 19
e 2 31
e 2 32
e 2 33
e 2 40
e 2 45
e 2 46
e 2 49
e 2 57
e 2 71
e 2 84
e 2 85
e 2 86
e 2 88
e 2 92
e 3 5
e 3 7
e 3 15
e 3 19
e 3 20
e 3 27
e 3 45
e 3 53
e 3 54
e 3 67
e 3 80
e 3 81
e 3 82
e 3 84
e 3 85
e 3 87
e 3 88
e 3 90
e 3 97
e 4 7
e 4 9
e 4 10
e 4 13
e 4 20
e 4 21
e 4 42
e 4 50
e 4 53
e 4 55
e 4 82
e 4 83
e 4 90
e 4 92
e 5 8
e 5 9
e 5 14
e 5 18
e 5 22
e 5 23
e 5 33
e 5 39
e 5 44
e 5 54
e 5 55
e 5 59
e 5 61
e 5 83
e 5 86
e 5 88
e 5 89
e 6 7
e 6 8
e 6 13
e 6 15
e 6 27
e 6 28
e 6 35
e 6 43
e 6 49
e 6 51
e 6 55
e 6 57
e 6 68
e 6 83
e 6 84
e 6 85
e 6 86
e 6 87
e 6 88
e 6 90
e 6 91
e 7 11
e 7 13
e 7 15
e 7 20
e 7 26
e 7 33
e 7 38
e 7 39
e 7 41
e 7 44
e 7 46
e 7 47
e 7 57
e 7 59
e 7 60
e 7 61
e 7 63
e 7 78
e 7 83
e 7 85
e 7 86
e 7 89
e 7 96
e 7 97
e 7 100
e 8 10
e 8 13
e 8 15
e 8 26
e 8 36
e 8 39
e 8 40
e 8 41
e 8 42
e 8 44
e 8 56
e 8 66
e 8 67
e 8 76
e 8 81
e 8 84
e 8 85
e 8 86
e 8 91
e 9 10
e 9 11
e 9 13
e 9 18
e 9 23
e 9 30
e 9 32
e 9 33
e 9 48
e 9 53
e 9 56
e 9 60
e 9 62
e 9 64
e 9 74
e 9 87
e 9 88
e 9 90
e 10 12
e 10 16
e 10 18
e 10 20
e 10 22
e 10 23
e 10 24
e 10 30
e 10 40
e 10 44
e 10 53
e 10 64
e 10 70
e 10 73
e 10 78
e 10 88
e 10 91
e 10 100
e 11 15
e 11 21
e 11 28
e 11 34
e 11 41
e 11 45
e 11 46
e 11 57
e 11 59
e 11 62
e 11 67
e 11 72
e 11 85
e 11 87
e 11 91
e 11 96
e 12 23
e 12 24
e 12 33
e 12 37
e 12 38
e 12 41
e 12 51
e 12 53
e 12 55
e 12 58
e 12 63
e 12 65
e 12 67
e 12 69
e 12 70
e 12 77
e 12 82
e 12 83
e 12 85
e 12 86
e 12 89
e 12 91
e 13 17
e 13 22
e 13 28
e 13 41
e 13 43
e 13 50
e 13 51
e 13 82
e 13 85
e 13 87
e 13 88
e 13 90
e 13 92
e 13 93
e 14 15
e 14 18
e 14 20
e 14 22
e 14 23
e 14 28
e 14 31
e 14 33
e 14 34
e 14 38
e 14 39
e 14 41
e 14 42
e 14 47
e 14 50
e 14 52
e 14 53
e 14 54
e 14 55
e 14 56
e 14 57
e 14 61
e 14 62
e 14 65
e 14 70
e 14 72
e 14 76
e 14 78
e 14 82
e 14 87
e 14 88
e 14 89
e 14 90
e 14 92
e 14 93
e 14 95
e 15 16
e 15 20
e 15 21
e 15 22
e 15 28
e 15 32
e 15 34
e 15 35
e 15 37
e 15 38
e 15 42
e 15 47
e 15 48
e 15 50
e 15 55
e 15 60
e 15 61
e 15 69
e 15 74
e 15 78
e 15 79
e 15 80
e 15 83
e 15 84
e 15 85
e 15 86
e 15 87
e 15 88
e 15 90
e 15 91
e 15 92
e 15 97
e 16 20
e 16 22
e 16 24
e 16 25
e 16 30
e 16 31
e 16 36
e 16 37
e 16 38
e 16 40
e 16 41
e 16 43
e 16 45
e 16 47
e 16 48
e 16 51
e 16 52
e 16 53
e 16 54
e 16 56
e 16 60
e 16 61
e 16 66
e 16 69
e 16 70
e 16 75
e 16 76
e 16 77
e 16 80
e 16 81
e 16 82
e 16 86
e 16 87
e 16 88
e 16 91
e 16 92
e 17 18
e 17 24
e 17 25
e 17 28
e 17 29
e 17 30
e 17 35
e 17 38
e 17 40
e 17 41
e 17 42
e 17 43
e 17 44
e 17 47
e 17 49
e 17 50
e 17 52
e 17 62
e 17 63
e 17 65
e 17 69
e 17 71
e 17 76
e 17 77
e 17 82
e 17 83
e 17 86
e 17 87
e 17 88
e 17 91
e 17 92
e 18 19
e 18 21
e 18 22
e 18 23
e 18 28
e 18 29
e 18 30
e 18 31
e 18 35
e 18 37
e 18 39
e 18 40
e 18 41
e 18 44
e 18 46
e 18 48
e 18 49
e 18 50
e 18 51
e 18 55
e 18 56
e 18 59
e 18 61
e 18 63
e 18 64
e 18 65
e 18 66
e 18 67
e 18 69
e 18 70
e 18 71
e 18 76
e 18 77
e 18 84
e 18 88
e 18 91
e 18 92
e 19 20
e 19 22
e 19 25
e 19 28
e 19 29
e 19 30
e 19 32
e 19 33
e 19 36
e 19 39
e 19 41
e 19 44
e 19 45
e 19 49
e 19 51
e 19 52
e 19 54
e 19 60
e 19 67
e 19 71
e 19 72
e 19 74
e 19 75
e 19 76
e 19 78
e 19 80
e 19 82
e 19 84
e 19 85
e 19 86
e 19 91
e 19 92
e 19 98
e 20 30
e 20 33
e 20 35
e 20 37
e 20 38
e 20 39
e 20 44
e 20 46
e 20 47
e 20 48
e 20 54
e 20 55
e 20 56
e 20 64
e 20 66
e 20 68
e 20 71
e 20 72
e 20 74
e 20 77
e 20 78
e 20 83
e 20 84
e 20 90
e 20 91
e 21 25
e 21 30
e 21 31
e 21 34
e 21 36
e 21 40
e 21 44
e 21 45
e 21 49
e 21 52
e 21 53
e 21 55
e 21 58
e 21 60
e 21 64
e 21 65
e 21 68
e 21 70
e 21 72
e 21 73
e 21 76
e 21 79
e 21 80
e 21 81
e 21 82
e 21 83
e 21 84
e 21 87
e 21 88
e 21 90
e 21 91
e 22 23
e 22 24
e 22 25
e 22 27
e 22 28
e 22 29
e 22 30
e 22 31
e 22 34
e 22 36
e 22 37
e 22 41
e 22 45
e 22 46
e 22 47
e 22 48
e 22 52
e 22 53
e 22 56
e 22 60
e 22 62
e 22 66
e 22 69
e 22 72
e 22 73
e 22 74
e 22 76
e 22 78
e 22 81
e 22 82
e 22 87
e 22 90
e 22 92
e 22 96
e 22 97
e 23 28
e 23 32
e 23 33
e 23 37
e 23 38
e 23 39
e 23 42
e 23 44
e 23 45
e 23 46
e 23 48
e 23 49
e 23 51
e 23 52
e 23 56
e 23 57
e 23 58
e 23 60
e 23 61
e 23 62
e 23 64
e 23 69
e 23 71
e 23 72
e 23 74
e 23 76
e 23 77
e 23 78
e 23 83
e 23 84
e 23 88
e 23 89
e 23 92
e 24 25
e 24 29
e 24 31
e 24 34
e 24 36
e 24 37
e 24 38
e 24 41
e 24 42
e 24 45
e 24 47
e 24 52
e 24 62
e 24 67
e 24 68
e 24 74
e 24 76
e 24 77
e 24 87
e 24 88
e 24 90
e 24 91
e 25 28
e 25 31
e 25 33
e 25 36
e 25 39
e 25 40
e 25 41
e 25 44
e 25 45
e 25 46
e 25 50
e 25 53
e 25 54
e 25 56
e 25 59
e 25 60
e 25 62
e 25 68
e 25 69
e 25 73
e 25 74
e 25 76
e 25 78
e 25 79
e 25 88
e 25 89
e 25 91
e 25 92
e 26 27
e 26 28
e 26 36
e 26 39
e 26 41
e 26 43
e 26 48
e 26 49
e 26 53
e 26 57
e 26 61
e 26 62
e 26 63
e 26 64
e 26 65
e 26 70
e 26 71
e 26 72
e 26 74
e 26 76
e 26 78
e 26 79
e 26 81
e 26 84
e 26 86
e 26 88
e 26 89
e 26 90
e 26 91
e 27 29
e 27 30
e 27 31
e 27 34
e 27 35
e 27 36
e 27 52
e 27 56
e 27 60
e 27 62
e 27 64
e 27 65
e 27 66
e 27 67
e 27 68
e 27 70
e 27 75
e 27 77
e 27 81
e 27 83
e 27 85
e 27 89
e 27 90
e 27 92
e 28 30
e 28 31
e 28 34
e 28 36
e 28 37
e 28 41
e 28 42
e 28 43
e 28 44
e 28 46
e 28 47
e 28 50
e 28 56
e 28 57
e 28 60
e 28 63
e 28 66
e 28 67
e 28 68
e 28 71
e 28 75
e 28 77
e 28 79
e 28 82
e 28 87
e 28 92
e 29 33
e 29 36
e 29 44
e 29 46
e 29 47
e 29 48
e 29 49
e 29 55
e 29 61
e 29 62
e 29 63
e 29 64
e 29 66
e 29 67
e 29 74
e 29 75
e 29 77
e 29 81
e 29 82
e 29 83
e 29 86
e 29 88
e 29 90
e 29 92
e 29 93
e 29 94
e 29 95
e 29 98
e 29 99
e 30 32
e 30 34
e 30 35
e 30 36
e 30 38
e 30 40
e 30 44
e 30 46
e 30 51
e 30 53
e 30 54
e 30 55
e 30 58
e 30 60
e 30 62
e 30 63
e 30 65
e 30 67
e 30 68
e 30 69
e 30 75
e 30 76
e 30 79
e 30 82
e 30 85
e 30 88
e 30 90
e 30 92
e 30 97
e 30 99
e 31 32
e 31 33
e 31 34
e 31 38
e 31 39
e 31 41
e 31 42
e 31 43
e 31 44
e 31 48
e 31 50
e 31 51
e 31 53
e 31 57
e 31 58
e 31 61
e 31 63
e 31 66
e 31 67
e 31 68
e 31 70
e 31 72
e 31 73
e 31 75
e 31 81
e 31 82
e 31 83
e 31 88
e 31 91
e 31 93
e 31 94
e 32 33
e 32 34
e 32 35
e 32 48
e 32 49
e 32 51
e 32 54
e 32 55
e 32 58
e 32 62
e 32 66
e 32 67
e 32 71
e 32 73
e 32 74
e 32 76
e 32 78
e 32 81
e 32 85
e 32 87
e 32 90
e 32 92
e 32 93
e 32 95
e 32 97
e 32 98
e 33 35
e 33 36
e 33 37
e 33 39
e 33 42
e 33 44
e 33 45
e 33 48
e 33 52
e 33 53
e 33 56
e 33 60
e 33 66
e 33 68
e 33 70
e 33 71
e 33 76
e 33 77
e 33 78
e 33 83
e 33 90
e 33 91
e 33 98
e 33 99
e 34 35
e 34 38
e 34 42
e 34 43
e 34 44
e 34 47
e 34 50
e 34 51
e 34 53
e 34 55
e 34 57
e 34 58
e 34 59
e 34 64
e 34 65
e 34 77
e 34 79
e 34 80
e 34 82
e 34 83
e 34 86
e 34 87
e 34 88
e 34 94
e 34 95
e 34 97
e 34 100
e 35 38
e 35 40
e 35 41
e 35 42
e 35 43
e 35 45
e 35 47
e 35 51
e 35 58
e 35 62
e 35 67
e 35 69
e 35 71
e 35 73
e 35 76
e 35 79
e 35 81
e 35 83
e 35 86
e 35 87
e 35 91
e 35 96
e 35 97
e 35 98
e 35 100
e 36 39
e 36 42
e 36 43
e 36 47
e 36 48
e 36 49
e 36 51
e 36 55
e 36 56
e 36 57
e 36 58
e 36 60
e 36 62
e 36 64
e 36 67
e 36 68
e 36 70
e 36 71
e 36 72
e 36 75
e 36 82
e 36 83
e 36 85
e 36 86
e 36 91
e 36 92
e 36 96
e 36 97
e 37 41
e 37 43
e 37 44
e 37 54
e 37 55
e 37 56
e 37 57
e 37 58
e 37 62
e 37 69
e 37 70
e 37 71
e 37 74
e 37 77
e 37 79
e 37 81
e 37 82
e 37 84
e 37 87
e 37 88
e 37 91
e 37 92
e 37 93
e 37 96
e 37 97
e 37 98
e 38 42
e 38 44
e 38 47
e 38 49
e 38 53
e 38 55
e 38 56
e 38 58
e 38 61
e 38 63
e 38 64
e 38 68
e 38 69
e 38 70
e 38 73
e 38 74
e 38 76
e 38 77
e 38 79
e 38 80
e 38 81
e 38 82
e 38 83
e 38 84
e 38 85
e 38 87
e 38 90
e 38 95
e 38 97
e 39 41
e 39 42
e 39 44
e 39 47
e 39 51
e 39 52
e 39 53
e 39 54
e 39 55
e 39 56
e 39 57
e 39 60
e 39 62
e 39 65
e 39 67
e 39 70
e 39 73
e 39 78
e 39 80
e 39 85
e 39 88
e 39 90
e 39 92
e 39 93
e 39 95
e 39 96
e 39 97
e 40 42
e 40 45
e 40 48
e 40 49
e 40 52
e 40 53
e 40 54
e 40 55
e 40 58
e 40 59
e 40 60
e 40 62
e 40 63
e 40 66
e 40 67
e 40 70
e 40 73
e 40 74
e 40 75
e 40 76
e 40 77
e 40 78
e 40 79
e 40 87
e 40 88
e 40 89
e 40 90
e 40 91
e 40 92
e 40 94
e 40 95
e 40 96
e 40 97
e 40 98
e 40 99
e 41 43
e 41 44
e 41 47
e 41 48
e 41 50
e 41 54
e 41 55
e 41 59
e 41 60
e 41 62
e 41 64
e 41 66
e 41 68
e 41 70
e 41 72
e 41 78
e 41 86
e 41 92
e 41 97
e 41 99
e 41 100
e 42 43
e 42 44
e 42 46
e 42 49
e 42 52
e 42 53
e 42 60
e 42 62
e 42 65
e 42 69
e 42 71
e 42 73
e 42 75
e 42 77
e 42 79
e 42 82
e 42 84
e 42 85
e 42 88
e 42 92
e 42 98
e 43 44
e 43 45
e 43 47
e 43 53
e 43 54
e 43 55
e 43 56
e 43 57
e 43 59
e 43 60
e 43 62
e 43 63
e 43 64
e 43 67
e 43 70
e 43 72
e 43 73
e 43 77
e 43 81
e 43 86
e 43 89
e 43 90
e 43 99
e 44 47
e 44 50
e 44 51
e 44 53
e 44 56
e 44 57
e 44 63
e 44 64
e 44 65
e 44 66
e 44 69
e 44 72
e 44 74
e 44 76
e 44 79
e 44 80
e 44 85
e 44 86
e 44 92
e 44 94
e 44 96
e 45 46
e 45 48
e 45 51
e 45 52
e 45 56
e 45 59
e 45 61
e 45 62
e 45 65
e 45 66
e 45 68
e 45 69
e 45 73
e 45 74
e 45 75
e 45 88
e 45 93
e 45 94
e 45 95
e 45 99
e 46 47
e 46 49
e 46 55
e 46 57
e 46 58
e 46 59
e 46 60
e 46 62
e 46 63
e 46 65
e 46 68
e 46 69
e 46 71
e 46 73
e 46 74
e 46 76
e 46 77
e 46 78
e 46 79
e 46 80
e 46 82
e 46 87
e 46 92
e 46 94
e 46 95
e 46 98
e 47 50
e 47 51
e 47 52
e 47 53
e 47 59
e 47 65
e 47 66
e 47 67
e 47 69
e 47 71
e 47 73
e 47 74
e 47 75
e 47 76
e 47 77
e 47 80
e 47 87
e 47 90
e 47 91
e 47 93
e 48 51
e 48 52
e 48 53
e 48 56
e 48 57
e 48 59
e 48 62
e 48 63
e 48 66
e 48 67
e 48 68
e 48 69
e 48 74
e 48 77
e 48 80
e 48 81
e 48 82
e 48 83
e 48 84
e 48 85
e 48 86
e 48 87
e 48 89
e 48 91
e 48 92
e 49 53
e 49 57
e 49 58
e 49 61
e 49 64
e 49 66
e 49 68
e 49 70
e 49 72
e 49 77
e 49 78
e 49 79
e 49 81
e 49 83
e 49 93
e 50 54
e 50 55
e 50 56
e 50 59
e 50 61
e 50 63
e 50 64
e 50 67
e 50 68
e 50 69
e 50 72
e 50 73
e 50 74
e 50 76
e 50 77
e 50 82
e 50 83
e 50 84
e 50 87
e 50 92
e 50 93
e 50 97
e 51 56
e 51 57
e 51 58
e 51 62
e 51 70
e 51 72
e 51 74
e 51 75
e 51 79
e 51 82
e 51 83
e 51 87
e 51 92
e 51 98
e 51 99
e 52 55
e 52 56
e 52 57
e 52 59
e 52 60
e 52 63
e 52 64
e 52 65
e 52 67
e 52 69
e 52 70
e 52 71
e 52 73
e 52 74
e 52 75
e 52 78
e 52 80
e 52 81
e 52 82
e 52 88
e 52 90
e 52 95
e 53 55
e 53 56
e 53 57
e 53 58
e 53 65
e 53 67
e 53 70
e 53 74
e 53 76
e 53 77
e 53 79
e 53 97
e 53 98
e 54 56
e 54 59
e 54 60
e 54 62
e 54 63
e 54 64
e 54 68
e 54 69
e 54 70
e 54 75
e 54 79
e 54 82
e 54 88
e 54 89
e 54 94
e 54 96
e 54 97
e 55 58
e 55 59
e 55 60
e 55 62
e 55 63
e 55 67
e 55 68
e 55 70
e 55 71
e 55 77
e 55 78
e 55 80
e 55 83
e 55 84
e 55 87
e 55 88
e 55 89
e 55 90
e 55 92
e 55 95
e 55 96
e 55 98
e 56 61
e 56 62
e 56 63
e 56 64
e 56 67
e 56 70
e 56 71
e 56 73
e 56 75
e 56 86
e 56 93
e 56 94
e 57 62
e 57 63
e 57 66
e 57 76
e 57 80
e 57 86
e 57 88
e 57 91
e 57 92
e 57 94
e 57 95
e 58 62
e 58 63
e 58 66
e 58 67
e 58 72
e 58 73
e 58 80
e 58 85
e 58 86
e 58 88
e 58 90
e 58 92
e 58 93
e 58 94
e 58 96
e 58 97
e 58 99
e 59 64
e 59 67
e 59 68
e 59 71
e 59 72
e 59 74
e 59 75
e 59 78
e 59 82
e 59 85
e 59 88
e 59 92
e 59 97
e 59 100
e 60 61
e 60 64
e 60 65
e 60 68
e 60 69
e 60 70
e 60 72
e 60 73
e 60 76
e 60 78
e 60 79
e 60 80
e 60 85
e 60 87
e 60 92
e 60 93
e 60 99
e 61 63
e 61 66
e 61 67
e 61 71
e 61 72
e 61 74
e 61 82
e 61 87
e 61 99
e 62 65
e 62 66
e 62 72
e 62 75
e 62 76
e 62 82
e 62 84
e 62 85
e 62 87
e 62 88
e 62 89
e 62 91
e 62 92
e 62 94
e 62 96
e 62 97
e 62 98
e 62 99
e 63 64
e 63 67
e 63 68
e 63 73
e 63 74
e 63 75
e 63 76
e 63 80
e 63 81
e 63 84
e 63 89
e 63 90
e 64 68
e 64 71
e 64 73
e 64 75
e 64 77
e 64 78
e 64 81
e 64 89
e 64 92
e 64 93
e 64 95
e 64 99
e 65 68
e 65 72
e 65 73
e 65 77
e 65 79
e 65 95
e 65 96
e 65 99
e 66 69
e 66 72
e 66 76
e 66 77
e 66 78
e 66 79
e 66 81
e 66 82
e 66 86
e 66 96
e 66 100
e 67 68
e 67 69
e 67 77
e 67 78
e 67 79
e 67 87
e 67 90
e 67 92
e 68 72
e 68 75
e 68 82
e 68 87
e 68 92
e 68 98
e 69 73
e 69 74
e 69 75
e 69 76
e 69 80
e 69 85
e 69 86
e 69 87
e 69 88
e 69 89
e 69 93
e 69 96
e 69 98
e 70 71
e 70 72
e 70 73
e 70 78
e 70 86
e 70 87
e 70 88
e 70 92
e 70 93
e 70 96
e 70 97
e 70 100
e 71 72
e 71 76
e 71 82
e 71 87
e 71 88
e 71 89
e 71 93
e 71 99
e 72 74
e 72 75
e 72 78
e 72 82
e 72 84
e 72 94
e 72 95
e 72 97
e 72 99
e 73 74
e 73 75
e 73 80
e 73 83
e 73 84
e 73 90
e 73 91
e 73 93
e 73 97
e 73 99
e 74 76
e 74 78
e 74 79
e 74 84
e 74 89
e 74 90
e 74 92
e 74 97
e 74 99
e 75 78
e 75 79
e 75 81
e 75 82
e 75 85
e 75 87
e 75 89
e 75 90
e 75 96
e 75 98
e 75 99
e 75 100
e 76 77
e 76 79
e 76 81
e 76 83
e 76 84
e 76 86
e 76 87
e 76 89
e 76 99
e 77 78
e 77 80
e 77 83
e 77 88
e 77 91
e 77 93
e 77 98
e 77 99
e 78 79
e 78 82
e 78 95
e 78 96
e 78 100
e 79 83
e 79 87
e 79 89
e 79 90
e 79 91
e 79 92
e 80 82
e 80 83
e 80 84
e 80 86
e 80 89
e 80 92
e 81 84
e 81 90
e 81 91
e 82 87
e 82 88
e 82 90
e 82 91
e 83 86
e 83 92
e 83 97
e 84 85
e 84 86
e 84 87
e 84 89
e 84 90
e 84 91
e 84 92
e 85 86
e 85 97
e 85 100
e 86 87
e 86 90
e 86 95
e 86 99
e 87 88
e 87 93
e 88 89
e 88 90
e 88 98
e 89 91
e 90 91
e 90 97
e 90 98
e 91 99
e 92 96
e 93 96
e 94 96
e 94 98
e 95 97
e 97 99
e 99 100
